smt/acc-fold/bench/smt/append_dll_size_slk-5.smt
(set-logic QF_S)

(declare-sort node2 0)
(declare-fun val () (Field node2 int))
(declare-fun prev () (Field node2 node2))
(declare-fun next () (Field node2 node2))

(declare-fun dll ((?in node2) (?p node2) (?n int))
Space (tospace
(or
(= ?in nil)
(= ?n 0)
(exists ((?p_23 node2)(?self_24 node2)(?flted_12_22 int)) (tobool (ssep (pto ?in (sref (ref val ?Anon_13) (ref prev ?p_23) (ref next ?q) )) (dll ?q ?self_24 ?flted_12_22)))
)))













(declare-fun xprm () node2)
(declare-fun yprm () node2)
(declare-fun q () node2)
(declare-fun m () int)
(declare-fun y () node2)
(declare-fun x () node2)
(declare-fun v_bool_20_1015prm () boolean)
(declare-fun next_21_1070 () node2)
(declare-fun q_1060 () node2)
(declare-fun self_1057 () node2)
(declare-fun flted_12_1058 () int)
(declare-fun p () node2)
(declare-fun n () int)
(declare-fun Anon_1059 () int)
(declare-fun p_1056 () node2)


(assert 
(and 
(= flted_12_1058+1 m)
(= p_1056 q)
(= self_1057 x')
lt(= y' y)
(= x' x)
(= q_1060 nil)
bvar(= q_1060 nil)
bvar(= next_21_1070 q_1060)
(distinct y' nil)
(tobool (ssep 
(dll q_1060 self_1057 flted_12_1058)
(dll y p n)
(pto xprm (sref (ref val Anon_1059) (ref prev p_1056) (ref next y') ))
emp
) )
)
)

(assert (not 
(and 
(= flted_12_1058+1 m)
(= p_1056 q)
(= self_1057 x')
lt(= y' y)
(= x' x)
(= q_1060 nil)
bvar(= q_1060 nil)
bvar(= next_21_1070 q_1060)
(distinct y' nil)
(tobool (ssep 
(dll q_1060 self_1057 flted_12_1058)
(dll y p n)
(pto xprm (sref (ref val Anon_1059) (ref prev p_1056) (ref next y') ))
emp
) )
)
))

(check-sat)